
Gurobi 10.0.1 (linux64) logging started Sun Nov 26 16:56:56 2023

Set parameter LogFile to value "ArtificialInstance/ExperimentV2/S3T5K3/AdDo/gurobi91.txt"
Gurobi Optimizer version 10.0.1 build v10.0.1rc0 (linux64)

CPU model: AMD EPYC 7H12 64-Core Processor, instruction set [SSE2|AVX|AVX2]
Thread count: 128 physical cores, 128 logical processors, using up to 32 threads

Academic license 656792 - for non-commercial use only - registered to b.___@student.vu.nl
Optimize a model with 5370 rows, 5046 columns and 19416 nonzeros
Model fingerprint: 0xc9ca2145
Variable types: 0 continuous, 5046 integer (5046 binary)
Coefficient statistics:
  Matrix range     [1e+00, 1e+00]
  Objective range  [2e+00, 2e+01]
  Bounds range     [1e+00, 1e+00]
  RHS range        [1e+00, 1e+00]
Presolve removed 1703 rows and 1715 columns
Presolve time: 0.09s
Presolved: 3667 rows, 3331 columns, 12931 nonzeros
Variable types: 0 continuous, 3331 integer (3331 binary)

Root relaxation: objective 6.236222e+01, 863 iterations, 0.02 seconds (0.01 work units)

    Nodes    |    Current Node    |     Objective Bounds      |     Work
 Expl Unexpl |  Obj  Depth IntInf | Incumbent    BestBd   Gap | It/Node Time

*    0     0               0      62.3622199   62.36222  0.00%     -    0s

Explored 1 nodes (863 simplex iterations) in 0.14 seconds (0.10 work units)
Thread count was 32 (of 128 available processors)

Solution count 1: 62.3622 

Optimal solution found (tolerance 1.00e-04)
Best objective 6.236221985896e+01, best bound 6.236221985896e+01, gap 0.0000%
